g9 0 1 0 150 20170614 0 4 0 240	# problem hvycrash
 201 150 1 0 150	# vars, constraints, objectives, ranges, eqns
 150 0	# nonlinear constraints, objectives
 0 0	# network constraints: nonlinear, linear
 150 0 0	# nonlinear vars in constraints, objectives, both
 0 0 0 1	# linear network variables; functions; arith, flags
 0 0 0 0 0	# discrete variables: binary, integer, nonlinear (b,c,o)
 599 1	# nonzeros in Jacobian, gradients
 0 0	# max name lengths: constraints, variables
 0 0 0 0 0	# common exprs: b,c,o,c1,o1
b
3
0 0 6.2831854
3
0 0 6.2831854
3
0 0 6.2831854
3
0 0 6.2831854
3
0 0 6.2831854
3
0 0 6.2831854
3
0 0 6.2831854
3
0 0 6.2831854
3
0 0 6.2831854
3
0 0 6.2831854
3
0 0 6.2831854
3
0 0 6.2831854
3
0 0 6.2831854
3
0 0 6.2831854
3
0 0 6.2831854
3
0 0 6.2831854
3
0 0 6.2831854
3
0 0 6.2831854
3
0 0 6.2831854
3
0 0 6.2831854
3
0 0 6.2831854
3
0 0 6.2831854
3
0 0 6.2831854
3
0 0 6.2831854
3
0 0 6.2831854
3
0 0 6.2831854
3
0 0 6.2831854
3
0 0 6.2831854
3
0 0 6.2831854
3
0 0 6.2831854
3
0 0 6.2831854
3
0 0 6.2831854
3
0 0 6.2831854
3
0 0 6.2831854
3
0 0 6.2831854
3
0 0 6.2831854
3
0 0 6.2831854
3
0 0 6.2831854
3
0 0 6.2831854
3
0 0 6.2831854
3
0 0 6.2831854
3
0 0 6.2831854
3
0 0 6.2831854
3
0 0 6.2831854
3
0 0 6.2831854
3
0 0 6.2831854
3
0 0 6.2831854
3
0 0 6.2831854
3
0 0 6.2831854
3
0 0 6.2831854
0 0.08 0.417
0 0.08 0.417
0 0.08 0.417
0 0.08 0.417
0 0.08 0.417
0 0.08 0.417
0 0.08 0.417
0 0.08 0.417
0 0.08 0.417
0 0.08 0.417
0 0.08 0.417
0 0.08 0.417
0 0.08 0.417
0 0.08 0.417
0 0.08 0.417
0 0.08 0.417
0 0.08 0.417
0 0.08 0.417
0 0.08 0.417
0 0.08 0.417
0 0.08 0.417
0 0.08 0.417
0 0.08 0.417
0 0.08 0.417
0 0.08 0.417
0 0.08 0.417
0 0.08 0.417
0 0.08 0.417
0 0.08 0.417
0 0.08 0.417
0 0.08 0.417
0 0.08 0.417
0 0.08 0.417
0 0.08 0.417
0 0.08 0.417
0 0.08 0.417
0 0.08 0.417
0 0.08 0.417
0 0.08 0.417
0 0.08 0.417
0 0.08 0.417
0 0.08 0.417
0 0.08 0.417
0 0.08 0.417
0 0.08 0.417
0 0.08 0.417
0 0.08 0.417
0 0.08 0.417
0 0.08 0.417
0 0.08 0.417
0 0 6.2831854
3
3
3
3
3
3
3
3
3
3
3
3
3
3
3
3
3
3
3
3
3
3
3
3
3
3
3
3
3
3
3
3
3
3
3
3
3
3
3
3
3
3
3
3
3
3
3
3
3
3
x50
0 1.5
2 1.5
4 1.5
6 1.5
8 1.5
10 1.5
12 1.5
14 1.5
16 1.5
18 1.5
20 1.5
22 1.5
24 1.5
26 1.5
28 1.5
30 1.5
32 1.5
34 1.5
36 1.5
38 1.5
40 1.5
42 1.5
44 1.5
46 1.5
48 1.5
50 1.5
52 1.5
54 1.5
56 1.5
58 1.5
60 1.5
62 1.5
64 1.5
66 1.5
68 1.5
70 1.5
72 1.5
74 1.5
76 1.5
78 1.5
80 1.5
82 1.5
84 1.5
86 1.5
88 1.5
90 1.5
92 1.5
94 1.5
96 1.5
98 1.09905
r
4 0
4 0
4 0
4 0
4 0
4 0
4 0
4 0
4 0
4 0
4 0
4 0
4 0
4 0
4 0
4 0
4 0
4 0
4 0
4 0
4 0
4 0
4 0
4 0
4 0
4 0
4 0
4 0
4 0
4 0
4 0
4 0
4 0
4 0
4 0
4 0
4 0
4 0
4 0
4 0
4 0
4 0
4 0
4 0
4 0
4 0
4 0
4 0
4 0
4 0
4 0
4 0
4 0
4 0
4 0
4 0
4 0
4 0
4 0
4 0
4 0
4 0
4 0
4 0
4 0
4 0
4 0
4 0
4 0
4 0
4 0
4 0
4 0
4 0
4 0
4 0
4 0
4 0
4 0
4 0
4 0
4 0
4 0
4 0
4 0
4 0
4 0
4 0
4 0
4 0
4 0
4 0
4 0
4 0
4 0
4 0
4 0
4 0
4 0
4 0
4 0
4 0
4 0
4 0
4 0
4 0
4 0
4 0
4 0
4 0
4 0
4 0
4 0
4 0
4 0
4 0
4 0
4 0
4 0
4 0
4 0
4 0
4 0
4 0
4 0
4 0
4 0
4 0
4 0
4 0
4 0
4 0
4 0
4 0
4 0
4 0
4 0
4 0
4 0
4 0
4 0
4 0
4 0
4 0
4 0
4 0
4 0
4 0
4 0
4 0
C0
o3
o2
n0.00437
o46
v1
o2
o2
o2
n1.62079
o0
n0.01
o2
o2
n0.3
v100
v100
v0
v0
C1
o1
o3
n-1
v0
o3
o46
v1
o2
o2
o2
n1.62079
o0
n0.01
o2
o2
n0.3
v100
v100
o2
v0
v0
v0
C2
o1
o3
o2
n0.00437
v100
o2
o0
n0.01
o2
o2
n0.3
v100
v100
o2
v0
v0
o3
o2
n0.00437
o46
v1
o2
o2
o2
o2
n1.62079
o0
n0.01
o2
o2
n0.3
v100
v100
o2
v0
v0
v0
v0
C3
o3
o2
n0.00437
o46
v3
o2
o2
o2
n1.62079
o0
n0.01
o2
o2
n0.3
v101
v101
v2
v2
C4
o1
o3
n-1
v2
o3
o46
v3
o2
o2
o2
n1.62079
o0
n0.01
o2
o2
n0.3
v101
v101
o2
v2
v2
v2
C5
o1
o3
o2
n0.00437
v101
o2
o0
n0.01
o2
o2
n0.3
v101
v101
o2
v2
v2
o3
o2
n0.00437
o46
v3
o2
o2
o2
o2
n1.62079
o0
n0.01
o2
o2
n0.3
v101
v101
o2
v2
v2
v2
v2
C6
o3
o2
n0.00437
o46
v5
o2
o2
o2
n1.62079
o0
n0.01
o2
o2
n0.3
v102
v102
v4
v4
C7
o1
o3
n-1
v4
o3
o46
v5
o2
o2
o2
n1.62079
o0
n0.01
o2
o2
n0.3
v102
v102
o2
v4
v4
v4
C8
o1
o3
o2
n0.00437
v102
o2
o0
n0.01
o2
o2
n0.3
v102
v102
o2
v4
v4
o3
o2
n0.00437
o46
v5
o2
o2
o2
o2
n1.62079
o0
n0.01
o2
o2
n0.3
v102
v102
o2
v4
v4
v4
v4
C9
o3
o2
n0.00437
o46
v7
o2
o2
o2
n1.62079
o0
n0.01
o2
o2
n0.3
v103
v103
v6
v6
C10
o1
o3
n-1
v6
o3
o46
v7
o2
o2
o2
n1.62079
o0
n0.01
o2
o2
n0.3
v103
v103
o2
v6
v6
v6
C11
o1
o3
o2
n0.00437
v103
o2
o0
n0.01
o2
o2
n0.3
v103
v103
o2
v6
v6
o3
o2
n0.00437
o46
v7
o2
o2
o2
o2
n1.62079
o0
n0.01
o2
o2
n0.3
v103
v103
o2
v6
v6
v6
v6
C12
o3
o2
n0.00437
o46
v9
o2
o2
o2
n1.62079
o0
n0.01
o2
o2
n0.3
v104
v104
v8
v8
C13
o1
o3
n-1
v8
o3
o46
v9
o2
o2
o2
n1.62079
o0
n0.01
o2
o2
n0.3
v104
v104
o2
v8
v8
v8
C14
o1
o3
o2
n0.00437
v104
o2
o0
n0.01
o2
o2
n0.3
v104
v104
o2
v8
v8
o3
o2
n0.00437
o46
v9
o2
o2
o2
o2
n1.62079
o0
n0.01
o2
o2
n0.3
v104
v104
o2
v8
v8
v8
v8
C15
o3
o2
n0.00437
o46
v11
o2
o2
o2
n1.62079
o0
n0.01
o2
o2
n0.3
v105
v105
v10
v10
C16
o1
o3
n-1
v10
o3
o46
v11
o2
o2
o2
n1.62079
o0
n0.01
o2
o2
n0.3
v105
v105
o2
v10
v10
v10
C17
o1
o3
o2
n0.00437
v105
o2
o0
n0.01
o2
o2
n0.3
v105
v105
o2
v10
v10
o3
o2
n0.00437
o46
v11
o2
o2
o2
o2
n1.62079
o0
n0.01
o2
o2
n0.3
v105
v105
o2
v10
v10
v10
v10
C18
o3
o2
n0.00437
o46
v13
o2
o2
o2
n1.62079
o0
n0.01
o2
o2
n0.3
v106
v106
v12
v12
C19
o1
o3
n-1
v12
o3
o46
v13
o2
o2
o2
n1.62079
o0
n0.01
o2
o2
n0.3
v106
v106
o2
v12
v12
v12
C20
o1
o3
o2
n0.00437
v106
o2
o0
n0.01
o2
o2
n0.3
v106
v106
o2
v12
v12
o3
o2
n0.00437
o46
v13
o2
o2
o2
o2
n1.62079
o0
n0.01
o2
o2
n0.3
v106
v106
o2
v12
v12
v12
v12
C21
o3
o2
n0.00437
o46
v15
o2
o2
o2
n1.62079
o0
n0.01
o2
o2
n0.3
v107
v107
v14
v14
C22
o1
o3
n-1
v14
o3
o46
v15
o2
o2
o2
n1.62079
o0
n0.01
o2
o2
n0.3
v107
v107
o2
v14
v14
v14
C23
o1
o3
o2
n0.00437
v107
o2
o0
n0.01
o2
o2
n0.3
v107
v107
o2
v14
v14
o3
o2
n0.00437
o46
v15
o2
o2
o2
o2
n1.62079
o0
n0.01
o2
o2
n0.3
v107
v107
o2
v14
v14
v14
v14
C24
o3
o2
n0.00437
o46
v17
o2
o2
o2
n1.62079
o0
n0.01
o2
o2
n0.3
v108
v108
v16
v16
C25
o1
o3
n-1
v16
o3
o46
v17
o2
o2
o2
n1.62079
o0
n0.01
o2
o2
n0.3
v108
v108
o2
v16
v16
v16
C26
o1
o3
o2
n0.00437
v108
o2
o0
n0.01
o2
o2
n0.3
v108
v108
o2
v16
v16
o3
o2
n0.00437
o46
v17
o2
o2
o2
o2
n1.62079
o0
n0.01
o2
o2
n0.3
v108
v108
o2
v16
v16
v16
v16
C27
o3
o2
n0.00437
o46
v19
o2
o2
o2
n1.62079
o0
n0.01
o2
o2
n0.3
v109
v109
v18
v18
C28
o1
o3
n-1
v18
o3
o46
v19
o2
o2
o2
n1.62079
o0
n0.01
o2
o2
n0.3
v109
v109
o2
v18
v18
v18
C29
o1
o3
o2
n0.00437
v109
o2
o0
n0.01
o2
o2
n0.3
v109
v109
o2
v18
v18
o3
o2
n0.00437
o46
v19
o2
o2
o2
o2
n1.62079
o0
n0.01
o2
o2
n0.3
v109
v109
o2
v18
v18
v18
v18
C30
o3
o2
n0.00437
o46
v21
o2
o2
o2
n1.62079
o0
n0.01
o2
o2
n0.3
v110
v110
v20
v20
C31
o1
o3
n-1
v20
o3
o46
v21
o2
o2
o2
n1.62079
o0
n0.01
o2
o2
n0.3
v110
v110
o2
v20
v20
v20
C32
o1
o3
o2
n0.00437
v110
o2
o0
n0.01
o2
o2
n0.3
v110
v110
o2
v20
v20
o3
o2
n0.00437
o46
v21
o2
o2
o2
o2
n1.62079
o0
n0.01
o2
o2
n0.3
v110
v110
o2
v20
v20
v20
v20
C33
o3
o2
n0.00437
o46
v23
o2
o2
o2
n1.62079
o0
n0.01
o2
o2
n0.3
v111
v111
v22
v22
C34
o1
o3
n-1
v22
o3
o46
v23
o2
o2
o2
n1.62079
o0
n0.01
o2
o2
n0.3
v111
v111
o2
v22
v22
v22
C35
o1
o3
o2
n0.00437
v111
o2
o0
n0.01
o2
o2
n0.3
v111
v111
o2
v22
v22
o3
o2
n0.00437
o46
v23
o2
o2
o2
o2
n1.62079
o0
n0.01
o2
o2
n0.3
v111
v111
o2
v22
v22
v22
v22
C36
o3
o2
n0.00437
o46
v25
o2
o2
o2
n1.62079
o0
n0.01
o2
o2
n0.3
v112
v112
v24
v24
C37
o1
o3
n-1
v24
o3
o46
v25
o2
o2
o2
n1.62079
o0
n0.01
o2
o2
n0.3
v112
v112
o2
v24
v24
v24
C38
o1
o3
o2
n0.00437
v112
o2
o0
n0.01
o2
o2
n0.3
v112
v112
o2
v24
v24
o3
o2
n0.00437
o46
v25
o2
o2
o2
o2
n1.62079
o0
n0.01
o2
o2
n0.3
v112
v112
o2
v24
v24
v24
v24
C39
o3
o2
n0.00437
o46
v27
o2
o2
o2
n1.62079
o0
n0.01
o2
o2
n0.3
v113
v113
v26
v26
C40
o1
o3
n-1
v26
o3
o46
v27
o2
o2
o2
n1.62079
o0
n0.01
o2
o2
n0.3
v113
v113
o2
v26
v26
v26
C41
o1
o3
o2
n0.00437
v113
o2
o0
n0.01
o2
o2
n0.3
v113
v113
o2
v26
v26
o3
o2
n0.00437
o46
v27
o2
o2
o2
o2
n1.62079
o0
n0.01
o2
o2
n0.3
v113
v113
o2
v26
v26
v26
v26
C42
o3
o2
n0.00437
o46
v29
o2
o2
o2
n1.62079
o0
n0.01
o2
o2
n0.3
v114
v114
v28
v28
C43
o1
o3
n-1
v28
o3
o46
v29
o2
o2
o2
n1.62079
o0
n0.01
o2
o2
n0.3
v114
v114
o2
v28
v28
v28
C44
o1
o3
o2
n0.00437
v114
o2
o0
n0.01
o2
o2
n0.3
v114
v114
o2
v28
v28
o3
o2
n0.00437
o46
v29
o2
o2
o2
o2
n1.62079
o0
n0.01
o2
o2
n0.3
v114
v114
o2
v28
v28
v28
v28
C45
o3
o2
n0.00437
o46
v31
o2
o2
o2
n1.62079
o0
n0.01
o2
o2
n0.3
v115
v115
v30
v30
C46
o1
o3
n-1
v30
o3
o46
v31
o2
o2
o2
n1.62079
o0
n0.01
o2
o2
n0.3
v115
v115
o2
v30
v30
v30
C47
o1
o3
o2
n0.00437
v115
o2
o0
n0.01
o2
o2
n0.3
v115
v115
o2
v30
v30
o3
o2
n0.00437
o46
v31
o2
o2
o2
o2
n1.62079
o0
n0.01
o2
o2
n0.3
v115
v115
o2
v30
v30
v30
v30
C48
o3
o2
n0.00437
o46
v33
o2
o2
o2
n1.62079
o0
n0.01
o2
o2
n0.3
v116
v116
v32
v32
C49
o1
o3
n-1
v32
o3
o46
v33
o2
o2
o2
n1.62079
o0
n0.01
o2
o2
n0.3
v116
v116
o2
v32
v32
v32
C50
o1
o3
o2
n0.00437
v116
o2
o0
n0.01
o2
o2
n0.3
v116
v116
o2
v32
v32
o3
o2
n0.00437
o46
v33
o2
o2
o2
o2
n1.62079
o0
n0.01
o2
o2
n0.3
v116
v116
o2
v32
v32
v32
v32
C51
o3
o2
n0.00437
o46
v35
o2
o2
o2
n1.62079
o0
n0.01
o2
o2
n0.3
v117
v117
v34
v34
C52
o1
o3
n-1
v34
o3
o46
v35
o2
o2
o2
n1.62079
o0
n0.01
o2
o2
n0.3
v117
v117
o2
v34
v34
v34
C53
o1
o3
o2
n0.00437
v117
o2
o0
n0.01
o2
o2
n0.3
v117
v117
o2
v34
v34
o3
o2
n0.00437
o46
v35
o2
o2
o2
o2
n1.62079
o0
n0.01
o2
o2
n0.3
v117
v117
o2
v34
v34
v34
v34
C54
o3
o2
n0.00437
o46
v37
o2
o2
o2
n1.62079
o0
n0.01
o2
o2
n0.3
v118
v118
v36
v36
C55
o1
o3
n-1
v36
o3
o46
v37
o2
o2
o2
n1.62079
o0
n0.01
o2
o2
n0.3
v118
v118
o2
v36
v36
v36
C56
o1
o3
o2
n0.00437
v118
o2
o0
n0.01
o2
o2
n0.3
v118
v118
o2
v36
v36
o3
o2
n0.00437
o46
v37
o2
o2
o2
o2
n1.62079
o0
n0.01
o2
o2
n0.3
v118
v118
o2
v36
v36
v36
v36
C57
o3
o2
n0.00437
o46
v39
o2
o2
o2
n1.62079
o0
n0.01
o2
o2
n0.3
v119
v119
v38
v38
C58
o1
o3
n-1
v38
o3
o46
v39
o2
o2
o2
n1.62079
o0
n0.01
o2
o2
n0.3
v119
v119
o2
v38
v38
v38
C59
o1
o3
o2
n0.00437
v119
o2
o0
n0.01
o2
o2
n0.3
v119
v119
o2
v38
v38
o3
o2
n0.00437
o46
v39
o2
o2
o2
o2
n1.62079
o0
n0.01
o2
o2
n0.3
v119
v119
o2
v38
v38
v38
v38
C60
o3
o2
n0.00437
o46
v41
o2
o2
o2
n1.62079
o0
n0.01
o2
o2
n0.3
v120
v120
v40
v40
C61
o1
o3
n-1
v40
o3
o46
v41
o2
o2
o2
n1.62079
o0
n0.01
o2
o2
n0.3
v120
v120
o2
v40
v40
v40
C62
o1
o3
o2
n0.00437
v120
o2
o0
n0.01
o2
o2
n0.3
v120
v120
o2
v40
v40
o3
o2
n0.00437
o46
v41
o2
o2
o2
o2
n1.62079
o0
n0.01
o2
o2
n0.3
v120
v120
o2
v40
v40
v40
v40
C63
o3
o2
n0.00437
o46
v43
o2
o2
o2
n1.62079
o0
n0.01
o2
o2
n0.3
v121
v121
v42
v42
C64
o1
o3
n-1
v42
o3
o46
v43
o2
o2
o2
n1.62079
o0
n0.01
o2
o2
n0.3
v121
v121
o2
v42
v42
v42
C65
o1
o3
o2
n0.00437
v121
o2
o0
n0.01
o2
o2
n0.3
v121
v121
o2
v42
v42
o3
o2
n0.00437
o46
v43
o2
o2
o2
o2
n1.62079
o0
n0.01
o2
o2
n0.3
v121
v121
o2
v42
v42
v42
v42
C66
o3
o2
n0.00437
o46
v45
o2
o2
o2
n1.62079
o0
n0.01
o2
o2
n0.3
v122
v122
v44
v44
C67
o1
o3
n-1
v44
o3
o46
v45
o2
o2
o2
n1.62079
o0
n0.01
o2
o2
n0.3
v122
v122
o2
v44
v44
v44
C68
o1
o3
o2
n0.00437
v122
o2
o0
n0.01
o2
o2
n0.3
v122
v122
o2
v44
v44
o3
o2
n0.00437
o46
v45
o2
o2
o2
o2
n1.62079
o0
n0.01
o2
o2
n0.3
v122
v122
o2
v44
v44
v44
v44
C69
o3
o2
n0.00437
o46
v47
o2
o2
o2
n1.62079
o0
n0.01
o2
o2
n0.3
v123
v123
v46
v46
C70
o1
o3
n-1
v46
o3
o46
v47
o2
o2
o2
n1.62079
o0
n0.01
o2
o2
n0.3
v123
v123
o2
v46
v46
v46
C71
o1
o3
o2
n0.00437
v123
o2
o0
n0.01
o2
o2
n0.3
v123
v123
o2
v46
v46
o3
o2
n0.00437
o46
v47
o2
o2
o2
o2
n1.62079
o0
n0.01
o2
o2
n0.3
v123
v123
o2
v46
v46
v46
v46
C72
o3
o2
n0.00437
o46
v49
o2
o2
o2
n1.62079
o0
n0.01
o2
o2
n0.3
v124
v124
v48
v48
C73
o1
o3
n-1
v48
o3
o46
v49
o2
o2
o2
n1.62079
o0
n0.01
o2
o2
n0.3
v124
v124
o2
v48
v48
v48
C74
o1
o3
o2
n0.00437
v124
o2
o0
n0.01
o2
o2
n0.3
v124
v124
o2
v48
v48
o3
o2
n0.00437
o46
v49
o2
o2
o2
o2
n1.62079
o0
n0.01
o2
o2
n0.3
v124
v124
o2
v48
v48
v48
v48
C75
o3
o2
n0.00437
o46
v51
o2
o2
o2
n1.62079
o0
n0.01
o2
o2
n0.3
v125
v125
v50
v50
C76
o1
o3
n-1
v50
o3
o46
v51
o2
o2
o2
n1.62079
o0
n0.01
o2
o2
n0.3
v125
v125
o2
v50
v50
v50
C77
o1
o3
o2
n0.00437
v125
o2
o0
n0.01
o2
o2
n0.3
v125
v125
o2
v50
v50
o3
o2
n0.00437
o46
v51
o2
o2
o2
o2
n1.62079
o0
n0.01
o2
o2
n0.3
v125
v125
o2
v50
v50
v50
v50
C78
o3
o2
n0.00437
o46
v53
o2
o2
o2
n1.62079
o0
n0.01
o2
o2
n0.3
v126
v126
v52
v52
C79
o1
o3
n-1
v52
o3
o46
v53
o2
o2
o2
n1.62079
o0
n0.01
o2
o2
n0.3
v126
v126
o2
v52
v52
v52
C80
o1
o3
o2
n0.00437
v126
o2
o0
n0.01
o2
o2
n0.3
v126
v126
o2
v52
v52
o3
o2
n0.00437
o46
v53
o2
o2
o2
o2
n1.62079
o0
n0.01
o2
o2
n0.3
v126
v126
o2
v52
v52
v52
v52
C81
o3
o2
n0.00437
o46
v55
o2
o2
o2
n1.62079
o0
n0.01
o2
o2
n0.3
v127
v127
v54
v54
C82
o1
o3
n-1
v54
o3
o46
v55
o2
o2
o2
n1.62079
o0
n0.01
o2
o2
n0.3
v127
v127
o2
v54
v54
v54
C83
o1
o3
o2
n0.00437
v127
o2
o0
n0.01
o2
o2
n0.3
v127
v127
o2
v54
v54
o3
o2
n0.00437
o46
v55
o2
o2
o2
o2
n1.62079
o0
n0.01
o2
o2
n0.3
v127
v127
o2
v54
v54
v54
v54
C84
o3
o2
n0.00437
o46
v57
o2
o2
o2
n1.62079
o0
n0.01
o2
o2
n0.3
v128
v128
v56
v56
C85
o1
o3
n-1
v56
o3
o46
v57
o2
o2
o2
n1.62079
o0
n0.01
o2
o2
n0.3
v128
v128
o2
v56
v56
v56
C86
o1
o3
o2
n0.00437
v128
o2
o0
n0.01
o2
o2
n0.3
v128
v128
o2
v56
v56
o3
o2
n0.00437
o46
v57
o2
o2
o2
o2
n1.62079
o0
n0.01
o2
o2
n0.3
v128
v128
o2
v56
v56
v56
v56
C87
o3
o2
n0.00437
o46
v59
o2
o2
o2
n1.62079
o0
n0.01
o2
o2
n0.3
v129
v129
v58
v58
C88
o1
o3
n-1
v58
o3
o46
v59
o2
o2
o2
n1.62079
o0
n0.01
o2
o2
n0.3
v129
v129
o2
v58
v58
v58
C89
o1
o3
o2
n0.00437
v129
o2
o0
n0.01
o2
o2
n0.3
v129
v129
o2
v58
v58
o3
o2
n0.00437
o46
v59
o2
o2
o2
o2
n1.62079
o0
n0.01
o2
o2
n0.3
v129
v129
o2
v58
v58
v58
v58
C90
o3
o2
n0.00437
o46
v61
o2
o2
o2
n1.62079
o0
n0.01
o2
o2
n0.3
v130
v130
v60
v60
C91
o1
o3
n-1
v60
o3
o46
v61
o2
o2
o2
n1.62079
o0
n0.01
o2
o2
n0.3
v130
v130
o2
v60
v60
v60
C92
o1
o3
o2
n0.00437
v130
o2
o0
n0.01
o2
o2
n0.3
v130
v130
o2
v60
v60
o3
o2
n0.00437
o46
v61
o2
o2
o2
o2
n1.62079
o0
n0.01
o2
o2
n0.3
v130
v130
o2
v60
v60
v60
v60
C93
o3
o2
n0.00437
o46
v63
o2
o2
o2
n1.62079
o0
n0.01
o2
o2
n0.3
v131
v131
v62
v62
C94
o1
o3
n-1
v62
o3
o46
v63
o2
o2
o2
n1.62079
o0
n0.01
o2
o2
n0.3
v131
v131
o2
v62
v62
v62
C95
o1
o3
o2
n0.00437
v131
o2
o0
n0.01
o2
o2
n0.3
v131
v131
o2
v62
v62
o3
o2
n0.00437
o46
v63
o2
o2
o2
o2
n1.62079
o0
n0.01
o2
o2
n0.3
v131
v131
o2
v62
v62
v62
v62
C96
o3
o2
n0.00437
o46
v65
o2
o2
o2
n1.62079
o0
n0.01
o2
o2
n0.3
v132
v132
v64
v64
C97
o1
o3
n-1
v64
o3
o46
v65
o2
o2
o2
n1.62079
o0
n0.01
o2
o2
n0.3
v132
v132
o2
v64
v64
v64
C98
o1
o3
o2
n0.00437
v132
o2
o0
n0.01
o2
o2
n0.3
v132
v132
o2
v64
v64
o3
o2
n0.00437
o46
v65
o2
o2
o2
o2
n1.62079
o0
n0.01
o2
o2
n0.3
v132
v132
o2
v64
v64
v64
v64
C99
o3
o2
n0.00437
o46
v67
o2
o2
o2
n1.62079
o0
n0.01
o2
o2
n0.3
v133
v133
v66
v66
C100
o1
o3
n-1
v66
o3
o46
v67
o2
o2
o2
n1.62079
o0
n0.01
o2
o2
n0.3
v133
v133
o2
v66
v66
v66
C101
o1
o3
o2
n0.00437
v133
o2
o0
n0.01
o2
o2
n0.3
v133
v133
o2
v66
v66
o3
o2
n0.00437
o46
v67
o2
o2
o2
o2
n1.62079
o0
n0.01
o2
o2
n0.3
v133
v133
o2
v66
v66
v66
v66
C102
o3
o2
n0.00437
o46
v69
o2
o2
o2
n1.62079
o0
n0.01
o2
o2
n0.3
v134
v134
v68
v68
C103
o1
o3
n-1
v68
o3
o46
v69
o2
o2
o2
n1.62079
o0
n0.01
o2
o2
n0.3
v134
v134
o2
v68
v68
v68
C104
o1
o3
o2
n0.00437
v134
o2
o0
n0.01
o2
o2
n0.3
v134
v134
o2
v68
v68
o3
o2
n0.00437
o46
v69
o2
o2
o2
o2
n1.62079
o0
n0.01
o2
o2
n0.3
v134
v134
o2
v68
v68
v68
v68
C105
o3
o2
n0.00437
o46
v71
o2
o2
o2
n1.62079
o0
n0.01
o2
o2
n0.3
v135
v135
v70
v70
C106
o1
o3
n-1
v70
o3
o46
v71
o2
o2
o2
n1.62079
o0
n0.01
o2
o2
n0.3
v135
v135
o2
v70
v70
v70
C107
o1
o3
o2
n0.00437
v135
o2
o0
n0.01
o2
o2
n0.3
v135
v135
o2
v70
v70
o3
o2
n0.00437
o46
v71
o2
o2
o2
o2
n1.62079
o0
n0.01
o2
o2
n0.3
v135
v135
o2
v70
v70
v70
v70
C108
o3
o2
n0.00437
o46
v73
o2
o2
o2
n1.62079
o0
n0.01
o2
o2
n0.3
v136
v136
v72
v72
C109
o1
o3
n-1
v72
o3
o46
v73
o2
o2
o2
n1.62079
o0
n0.01
o2
o2
n0.3
v136
v136
o2
v72
v72
v72
C110
o1
o3
o2
n0.00437
v136
o2
o0
n0.01
o2
o2
n0.3
v136
v136
o2
v72
v72
o3
o2
n0.00437
o46
v73
o2
o2
o2
o2
n1.62079
o0
n0.01
o2
o2
n0.3
v136
v136
o2
v72
v72
v72
v72
C111
o3
o2
n0.00437
o46
v75
o2
o2
o2
n1.62079
o0
n0.01
o2
o2
n0.3
v137
v137
v74
v74
C112
o1
o3
n-1
v74
o3
o46
v75
o2
o2
o2
n1.62079
o0
n0.01
o2
o2
n0.3
v137
v137
o2
v74
v74
v74
C113
o1
o3
o2
n0.00437
v137
o2
o0
n0.01
o2
o2
n0.3
v137
v137
o2
v74
v74
o3
o2
n0.00437
o46
v75
o2
o2
o2
o2
n1.62079
o0
n0.01
o2
o2
n0.3
v137
v137
o2
v74
v74
v74
v74
C114
o3
o2
n0.00437
o46
v77
o2
o2
o2
n1.62079
o0
n0.01
o2
o2
n0.3
v138
v138
v76
v76
C115
o1
o3
n-1
v76
o3
o46
v77
o2
o2
o2
n1.62079
o0
n0.01
o2
o2
n0.3
v138
v138
o2
v76
v76
v76
C116
o1
o3
o2
n0.00437
v138
o2
o0
n0.01
o2
o2
n0.3
v138
v138
o2
v76
v76
o3
o2
n0.00437
o46
v77
o2
o2
o2
o2
n1.62079
o0
n0.01
o2
o2
n0.3
v138
v138
o2
v76
v76
v76
v76
C117
o3
o2
n0.00437
o46
v79
o2
o2
o2
n1.62079
o0
n0.01
o2
o2
n0.3
v139
v139
v78
v78
C118
o1
o3
n-1
v78
o3
o46
v79
o2
o2
o2
n1.62079
o0
n0.01
o2
o2
n0.3
v139
v139
o2
v78
v78
v78
C119
o1
o3
o2
n0.00437
v139
o2
o0
n0.01
o2
o2
n0.3
v139
v139
o2
v78
v78
o3
o2
n0.00437
o46
v79
o2
o2
o2
o2
n1.62079
o0
n0.01
o2
o2
n0.3
v139
v139
o2
v78
v78
v78
v78
C120
o3
o2
n0.00437
o46
v81
o2
o2
o2
n1.62079
o0
n0.01
o2
o2
n0.3
v140
v140
v80
v80
C121
o1
o3
n-1
v80
o3
o46
v81
o2
o2
o2
n1.62079
o0
n0.01
o2
o2
n0.3
v140
v140
o2
v80
v80
v80
C122
o1
o3
o2
n0.00437
v140
o2
o0
n0.01
o2
o2
n0.3
v140
v140
o2
v80
v80
o3
o2
n0.00437
o46
v81
o2
o2
o2
o2
n1.62079
o0
n0.01
o2
o2
n0.3
v140
v140
o2
v80
v80
v80
v80
C123
o3
o2
n0.00437
o46
v83
o2
o2
o2
n1.62079
o0
n0.01
o2
o2
n0.3
v141
v141
v82
v82
C124
o1
o3
n-1
v82
o3
o46
v83
o2
o2
o2
n1.62079
o0
n0.01
o2
o2
n0.3
v141
v141
o2
v82
v82
v82
C125
o1
o3
o2
n0.00437
v141
o2
o0
n0.01
o2
o2
n0.3
v141
v141
o2
v82
v82
o3
o2
n0.00437
o46
v83
o2
o2
o2
o2
n1.62079
o0
n0.01
o2
o2
n0.3
v141
v141
o2
v82
v82
v82
v82
C126
o3
o2
n0.00437
o46
v85
o2
o2
o2
n1.62079
o0
n0.01
o2
o2
n0.3
v142
v142
v84
v84
C127
o1
o3
n-1
v84
o3
o46
v85
o2
o2
o2
n1.62079
o0
n0.01
o2
o2
n0.3
v142
v142
o2
v84
v84
v84
C128
o1
o3
o2
n0.00437
v142
o2
o0
n0.01
o2
o2
n0.3
v142
v142
o2
v84
v84
o3
o2
n0.00437
o46
v85
o2
o2
o2
o2
n1.62079
o0
n0.01
o2
o2
n0.3
v142
v142
o2
v84
v84
v84
v84
C129
o3
o2
n0.00437
o46
v87
o2
o2
o2
n1.62079
o0
n0.01
o2
o2
n0.3
v143
v143
v86
v86
C130
o1
o3
n-1
v86
o3
o46
v87
o2
o2
o2
n1.62079
o0
n0.01
o2
o2
n0.3
v143
v143
o2
v86
v86
v86
C131
o1
o3
o2
n0.00437
v143
o2
o0
n0.01
o2
o2
n0.3
v143
v143
o2
v86
v86
o3
o2
n0.00437
o46
v87
o2
o2
o2
o2
n1.62079
o0
n0.01
o2
o2
n0.3
v143
v143
o2
v86
v86
v86
v86
C132
o3
o2
n0.00437
o46
v89
o2
o2
o2
n1.62079
o0
n0.01
o2
o2
n0.3
v144
v144
v88
v88
C133
o1
o3
n-1
v88
o3
o46
v89
o2
o2
o2
n1.62079
o0
n0.01
o2
o2
n0.3
v144
v144
o2
v88
v88
v88
C134
o1
o3
o2
n0.00437
v144
o2
o0
n0.01
o2
o2
n0.3
v144
v144
o2
v88
v88
o3
o2
n0.00437
o46
v89
o2
o2
o2
o2
n1.62079
o0
n0.01
o2
o2
n0.3
v144
v144
o2
v88
v88
v88
v88
C135
o3
o2
n0.00437
o46
v91
o2
o2
o2
n1.62079
o0
n0.01
o2
o2
n0.3
v145
v145
v90
v90
C136
o1
o3
n-1
v90
o3
o46
v91
o2
o2
o2
n1.62079
o0
n0.01
o2
o2
n0.3
v145
v145
o2
v90
v90
v90
C137
o1
o3
o2
n0.00437
v145
o2
o0
n0.01
o2
o2
n0.3
v145
v145
o2
v90
v90
o3
o2
n0.00437
o46
v91
o2
o2
o2
o2
n1.62079
o0
n0.01
o2
o2
n0.3
v145
v145
o2
v90
v90
v90
v90
C138
o3
o2
n0.00437
o46
v93
o2
o2
o2
n1.62079
o0
n0.01
o2
o2
n0.3
v146
v146
v92
v92
C139
o1
o3
n-1
v92
o3
o46
v93
o2
o2
o2
n1.62079
o0
n0.01
o2
o2
n0.3
v146
v146
o2
v92
v92
v92
C140
o1
o3
o2
n0.00437
v146
o2
o0
n0.01
o2
o2
n0.3
v146
v146
o2
v92
v92
o3
o2
n0.00437
o46
v93
o2
o2
o2
o2
n1.62079
o0
n0.01
o2
o2
n0.3
v146
v146
o2
v92
v92
v92
v92
C141
o3
o2
n0.00437
o46
v95
o2
o2
o2
n1.62079
o0
n0.01
o2
o2
n0.3
v147
v147
v94
v94
C142
o1
o3
n-1
v94
o3
o46
v95
o2
o2
o2
n1.62079
o0
n0.01
o2
o2
n0.3
v147
v147
o2
v94
v94
v94
C143
o1
o3
o2
n0.00437
v147
o2
o0
n0.01
o2
o2
n0.3
v147
v147
o2
v94
v94
o3
o2
n0.00437
o46
v95
o2
o2
o2
o2
n1.62079
o0
n0.01
o2
o2
n0.3
v147
v147
o2
v94
v94
v94
v94
C144
o3
o2
n0.00437
o46
v97
o2
o2
o2
n1.62079
o0
n0.01
o2
o2
n0.3
v148
v148
v96
v96
C145
o1
o3
n-1
v96
o3
o46
v97
o2
o2
o2
n1.62079
o0
n0.01
o2
o2
n0.3
v148
v148
o2
v96
v96
v96
C146
o1
o3
o2
n0.00437
v148
o2
o0
n0.01
o2
o2
n0.3
v148
v148
o2
v96
v96
o3
o2
n0.00437
o46
v97
o2
o2
o2
o2
n1.62079
o0
n0.01
o2
o2
n0.3
v148
v148
o2
v96
v96
v96
v96
C147
o3
o2
n0.00437
o46
v99
o2
o2
o2
n1.62079
o0
n0.01
o2
o2
n0.3
v149
v149
v98
v98
C148
o1
o3
n-1
v98
o3
o46
v99
o2
o2
o2
n1.62079
o0
n0.01
o2
o2
n0.3
v149
v149
o2
v98
v98
v98
C149
o1
o3
o2
n0.00437
v149
o2
o0
n0.01
o2
o2
n0.3
v149
v149
o2
v98
v98
o3
o2
n0.00437
o46
v99
o2
o2
o2
o2
n1.62079
o0
n0.01
o2
o2
n0.3
v149
v149
o2
v98
v98
v98
v98
O0 0
n0
k200
3
7
10
14
17
21
24
28
31
35
38
42
45
49
52
56
59
63
66
70
73
77
80
84
87
91
94
98
101
105
108
112
115
119
122
126
129
133
136
140
143
147
150
154
157
161
164
168
171
175
178
182
185
189
192
196
199
203
206
210
213
217
220
224
227
231
234
238
241
245
248
252
255
259
262
266
269
273
276
280
283
287
290
294
297
301
304
308
311
315
318
322
325
329
332
336
339
343
346
349
352
355
358
361
364
367
370
373
376
379
382
385
388
391
394
397
400
403
406
409
412
415
418
421
424
427
430
433
436
439
442
445
448
451
454
457
460
463
466
469
472
475
478
481
484
487
490
493
496
499
500
502
504
506
508
510
512
514
516
518
520
522
524
526
528
530
532
534
536
538
540
542
544
546
548
550
552
554
556
558
560
562
564
566
568
570
572
574
576
578
580
582
584
586
588
590
592
594
596
598
J0 4
0 0
1 0
100 0
151 -1
J1 3
0 0
1 0
100 0
J2 4
0 0
1 -0.1
100 0
150 0.1
J3 5
2 0
3 0
101 0
151 1
152 -1
J4 3
2 0
3 0
101 0
J5 4
1 0.1
2 0
3 -0.1
101 0
J6 5
4 0
5 0
102 0
152 1
153 -1
J7 3
4 0
5 0
102 0
J8 4
3 0.1
4 0
5 -0.1
102 0
J9 5
6 0
7 0
103 0
153 1
154 -1
J10 3
6 0
7 0
103 0
J11 4
5 0.1
6 0
7 -0.1
103 0
J12 5
8 0
9 0
104 0
154 1
155 -1
J13 3
8 0
9 0
104 0
J14 4
7 0.1
8 0
9 -0.1
104 0
J15 5
10 0
11 0
105 0
155 1
156 -1
J16 3
10 0
11 0
105 0
J17 4
9 0.1
10 0
11 -0.1
105 0
J18 5
12 0
13 0
106 0
156 1
157 -1
J19 3
12 0
13 0
106 0
J20 4
11 0.1
12 0
13 -0.1
106 0
J21 5
14 0
15 0
107 0
157 1
158 -1
J22 3
14 0
15 0
107 0
J23 4
13 0.1
14 0
15 -0.1
107 0
J24 5
16 0
17 0
108 0
158 1
159 -1
J25 3
16 0
17 0
108 0
J26 4
15 0.1
16 0
17 -0.1
108 0
J27 5
18 0
19 0
109 0
159 1
160 -1
J28 3
18 0
19 0
109 0
J29 4
17 0.1
18 0
19 -0.1
109 0
J30 5
20 0
21 0
110 0
160 1
161 -1
J31 3
20 0
21 0
110 0
J32 4
19 0.1
20 0
21 -0.1
110 0
J33 5
22 0
23 0
111 0
161 1
162 -1
J34 3
22 0
23 0
111 0
J35 4
21 0.1
22 0
23 -0.1
111 0
J36 5
24 0
25 0
112 0
162 1
163 -1
J37 3
24 0
25 0
112 0
J38 4
23 0.1
24 0
25 -0.1
112 0
J39 5
26 0
27 0
113 0
163 1
164 -1
J40 3
26 0
27 0
113 0
J41 4
25 0.1
26 0
27 -0.1
113 0
J42 5
28 0
29 0
114 0
164 1
165 -1
J43 3
28 0
29 0
114 0
J44 4
27 0.1
28 0
29 -0.1
114 0
J45 5
30 0
31 0
115 0
165 1
166 -1
J46 3
30 0
31 0
115 0
J47 4
29 0.1
30 0
31 -0.1
115 0
J48 5
32 0
33 0
116 0
166 1
167 -1
J49 3
32 0
33 0
116 0
J50 4
31 0.1
32 0
33 -0.1
116 0
J51 5
34 0
35 0
117 0
167 1
168 -1
J52 3
34 0
35 0
117 0
J53 4
33 0.1
34 0
35 -0.1
117 0
J54 5
36 0
37 0
118 0
168 1
169 -1
J55 3
36 0
37 0
118 0
J56 4
35 0.1
36 0
37 -0.1
118 0
J57 5
38 0
39 0
119 0
169 1
170 -1
J58 3
38 0
39 0
119 0
J59 4
37 0.1
38 0
39 -0.1
119 0
J60 5
40 0
41 0
120 0
170 1
171 -1
J61 3
40 0
41 0
120 0
J62 4
39 0.1
40 0
41 -0.1
120 0
J63 5
42 0
43 0
121 0
171 1
172 -1
J64 3
42 0
43 0
121 0
J65 4
41 0.1
42 0
43 -0.1
121 0
J66 5
44 0
45 0
122 0
172 1
173 -1
J67 3
44 0
45 0
122 0
J68 4
43 0.1
44 0
45 -0.1
122 0
J69 5
46 0
47 0
123 0
173 1
174 -1
J70 3
46 0
47 0
123 0
J71 4
45 0.1
46 0
47 -0.1
123 0
J72 5
48 0
49 0
124 0
174 1
175 -1
J73 3
48 0
49 0
124 0
J74 4
47 0.1
48 0
49 -0.1
124 0
J75 5
50 0
51 0
125 0
175 1
176 -1
J76 3
50 0
51 0
125 0
J77 4
49 0.1
50 0
51 -0.1
125 0
J78 5
52 0
53 0
126 0
176 1
177 -1
J79 3
52 0
53 0
126 0
J80 4
51 0.1
52 0
53 -0.1
126 0
J81 5
54 0
55 0
127 0
177 1
178 -1
J82 3
54 0
55 0
127 0
J83 4
53 0.1
54 0
55 -0.1
127 0
J84 5
56 0
57 0
128 0
178 1
179 -1
J85 3
56 0
57 0
128 0
J86 4
55 0.1
56 0
57 -0.1
128 0
J87 5
58 0
59 0
129 0
179 1
180 -1
J88 3
58 0
59 0
129 0
J89 4
57 0.1
58 0
59 -0.1
129 0
J90 5
60 0
61 0
130 0
180 1
181 -1
J91 3
60 0
61 0
130 0
J92 4
59 0.1
60 0
61 -0.1
130 0
J93 5
62 0
63 0
131 0
181 1
182 -1
J94 3
62 0
63 0
131 0
J95 4
61 0.1
62 0
63 -0.1
131 0
J96 5
64 0
65 0
132 0
182 1
183 -1
J97 3
64 0
65 0
132 0
J98 4
63 0.1
64 0
65 -0.1
132 0
J99 5
66 0
67 0
133 0
183 1
184 -1
J100 3
66 0
67 0
133 0
J101 4
65 0.1
66 0
67 -0.1
133 0
J102 5
68 0
69 0
134 0
184 1
185 -1
J103 3
68 0
69 0
134 0
J104 4
67 0.1
68 0
69 -0.1
134 0
J105 5
70 0
71 0
135 0
185 1
186 -1
J106 3
70 0
71 0
135 0
J107 4
69 0.1
70 0
71 -0.1
135 0
J108 5
72 0
73 0
136 0
186 1
187 -1
J109 3
72 0
73 0
136 0
J110 4
71 0.1
72 0
73 -0.1
136 0
J111 5
74 0
75 0
137 0
187 1
188 -1
J112 3
74 0
75 0
137 0
J113 4
73 0.1
74 0
75 -0.1
137 0
J114 5
76 0
77 0
138 0
188 1
189 -1
J115 3
76 0
77 0
138 0
J116 4
75 0.1
76 0
77 -0.1
138 0
J117 5
78 0
79 0
139 0
189 1
190 -1
J118 3
78 0
79 0
139 0
J119 4
77 0.1
78 0
79 -0.1
139 0
J120 5
80 0
81 0
140 0
190 1
191 -1
J121 3
80 0
81 0
140 0
J122 4
79 0.1
80 0
81 -0.1
140 0
J123 5
82 0
83 0
141 0
191 1
192 -1
J124 3
82 0
83 0
141 0
J125 4
81 0.1
82 0
83 -0.1
141 0
J126 5
84 0
85 0
142 0
192 1
193 -1
J127 3
84 0
85 0
142 0
J128 4
83 0.1
84 0
85 -0.1
142 0
J129 5
86 0
87 0
143 0
193 1
194 -1
J130 3
86 0
87 0
143 0
J131 4
85 0.1
86 0
87 -0.1
143 0
J132 5
88 0
89 0
144 0
194 1
195 -1
J133 3
88 0
89 0
144 0
J134 4
87 0.1
88 0
89 -0.1
144 0
J135 5
90 0
91 0
145 0
195 1
196 -1
J136 3
90 0
91 0
145 0
J137 4
89 0.1
90 0
91 -0.1
145 0
J138 5
92 0
93 0
146 0
196 1
197 -1
J139 3
92 0
93 0
146 0
J140 4
91 0.1
92 0
93 -0.1
146 0
J141 5
94 0
95 0
147 0
197 1
198 -1
J142 3
94 0
95 0
147 0
J143 4
93 0.1
94 0
95 -0.1
147 0
J144 5
96 0
97 0
148 0
198 1
199 -1
J145 3
96 0
97 0
148 0
J146 4
95 0.1
96 0
97 -0.1
148 0
J147 5
98 0
99 0
149 0
199 1
200 -1
J148 3
98 0
99 0
149 0
J149 4
97 0.1
98 0
99 -0.1
149 0
G0 1
200 1
